
Gurobi 9.5.0 (linux64) logging started Fri Nov 26 19:05:11 2021

Set parameter LogFile to value "results/max4cut_numv225/max4cut_numv225_spinglass2pm_1515_ind_BQO_log.txt"
Gurobi Optimizer version 9.5.0 build v9.5.0rc5 (linux64)
Thread count: 20 physical cores, 40 logical processors, using up to 10 threads
Optimize a model with 225 rows, 900 columns and 900 nonzeros
Model fingerprint: 0xc757963d
Model has 1800 quadratic objective terms
Variable types: 0 continuous, 900 integer (900 binary)
Coefficient statistics:
  Matrix range     [1e+00, 1e+00]
  Objective range  [0e+00, 0e+00]
  QObjective range [2e+00, 2e+00]
  Bounds range     [1e+00, 1e+00]
  RHS range        [1e+00, 1e+00]
Found heuristic solution: objective -0.0000000
Presolve removed 1 rows and 4 columns
Presolve time: 0.00s
Presolved: 2008 rows, 2680 columns, 6248 nonzeros
Variable types: 0 continuous, 2680 integer (2680 binary)

Root relaxation: objective -2.230000e+02, 1056 iterations, 0.02 seconds (0.02 work units)

    Nodes    |    Current Node    |     Objective Bounds      |     Work
 Expl Unexpl |  Obj  Depth IntInf | Incumbent    BestBd   Gap | It/Node Time

     0     0  223.00000    0  422   -0.00000  223.00000      -     -    0s
H    0     0                      96.0000000  223.00000   132%     -    0s
H    0     0                     152.0000000  223.00000  46.7%     -    0s
H    0     0                     159.0000000  223.00000  40.3%     -    0s
H    0     0                     160.0000000  221.00000  38.1%     -    0s
     0     0  221.00000    0  429  160.00000  221.00000  38.1%     -    0s
H    0     0                     162.0000000  221.00000  36.4%     -    0s
H    0     0                     163.0000000  221.00000  35.6%     -    0s
     0     0  219.00000    0  432  163.00000  219.00000  34.4%     -    0s
     0     0  204.50000    0  524  163.00000  204.50000  25.5%     -    0s
     0     0  204.25000    0  423  163.00000  204.25000  25.3%     -    0s
H    0     0                     164.0000000  204.25000  24.5%     -    0s
H    0     0                     167.0000000  204.25000  22.3%     -    0s
     0     0  201.00000    0  499  167.00000  201.00000  20.4%     -    0s
H    0     0                     170.0000000  201.00000  18.2%     -    0s
     0     0  200.83333    0  627  170.00000  200.83333  18.1%     -    0s
     0     0  197.00000    0  482  170.00000  197.00000  15.9%     -    0s
     0     0  197.00000    0  430  170.00000  197.00000  15.9%     -    0s
H    0     0                     172.0000000  197.00000  14.5%     -    0s
     0     2  196.50000    0  430  172.00000  196.50000  14.2%     -    0s
H  146   156                     174.0000000  194.00000  11.5%  97.7    1s
H  147   156                     176.0000000  194.00000  10.2%  97.1    1s
H  527   500                     177.0000000  194.00000  9.60%  64.3    1s
H 1703  1438                     180.0000000  180.00000  0.00%  58.4    3s

Cutting planes:
  Gomory: 41
  MIR: 4
  Flow cover: 53
  Inf proof: 4
  Zero half: 347

Explored 1703 nodes (114153 simplex iterations) in 3.25 seconds (2.24 work units)
Thread count was 10 (of 40 available processors)

Solution count 10: 180 177 176 ... 162

Optimal solution found (tolerance 0.00e+00)
Best objective 1.800000000000e+02, best bound 1.800000000000e+02, gap 0.0000%
